p ocr 30 30 80
24 35
17 60
6 32
18 34
21 60
3 33
10 48
16 45
15 46
18 45
29 54
11 60
27 56
4 48
10 43
5 56
11 53
22 35
26 60
8 54
18 31
30 60
20 37
13 53
1 33
4 59
11 46
2 43
16 42
19 38
8 47
7 60
11 57
19 40
12 56
3 53
23 40
22 51
5 44
13 57
24 57
14 40
11 50
11 59
1 58
3 55
23 33
30 48
28 41
9 46
7 39
7 48
21 47
8 56
24 52
28 52
26 34
20 48
12 44
18 60
9 32
26 36
19 60
28 47
28 56
16 57
5 45
29 39
10 53
1 50
27 50
17 49
7 56
28 33
29 41
20 38
4 51
18 59
16 34
25 55
